--Link1--
%nproc=32
%mem=4gb
%chk=pet.chk
#HF/6-31G* SCF=Tight Pop=MK IOp(6/33=2,6/41=10,6/42=17)

remark line goes here

0   1
    C   -1.2820000000       -0.1360000000       -0.0140000000     
    C   -0.6810000000        1.1290000000        0.0710000000     
    C    0.7130000000        1.2480000000        0.0820000000     
    C    1.5180000000        0.1020000000        0.0110000000     
    C    0.9130000000       -1.1620000000       -0.0460000000     
    C   -0.4750000000       -1.2800000000       -0.0590000000     
    C   -2.7650000000       -0.2300000000       -0.0730000000     
    C    3.0020000000        0.2530000000       -0.0220000000     
    O    3.5820000000        1.3190000000        0.0350000000     
    O    3.5680000000       -0.9710000000       -0.1480000000     
    C    4.9910000000       -0.9690000000       -0.2300000000     
    O   -3.5100000000        0.7290000000       -0.0280000000     
    O   -3.1290000000       -1.5300000000       -0.1880000000     
    C   -4.5340000000       -1.7990000000       -0.2520000000     
    C   -5.1580000000       -1.7840000000        1.1400000000     
    C   -4.5300000000       -2.8190000000        2.0620000000     
    H   -1.2980000000        2.0260000000        0.1170000000     
    H    1.1680000000        2.2360000000        0.1340000000     
    H    1.5100000000       -2.0690000000       -0.0940000000     
    H   -0.9090000000       -2.2750000000       -0.1150000000     
    H    5.3190000000       -2.0070000000       -0.3250000000     
    H    5.4250000000       -0.5480000000        0.6820000000     
    H    5.3210000000       -0.4180000000       -1.1150000000     
    H   -4.6450000000       -2.7930000000       -0.6990000000     
    H   -5.0290000000       -1.0890000000       -0.9240000000     
    H   -6.2330000000       -1.9750000000        1.0550000000     
    H   -5.0340000000       -0.7960000000        1.5970000000     
    H   -4.6390000000       -3.8270000000        1.6500000000     
    H   -5.0180000000       -2.7970000000        3.0420000000     
    H   -3.4630000000       -2.6240000000        2.2140000000     


